p cnf 484 1
484 0
w 1 0.409834
w 2 1 1
w 2 -1 0
w 3 2 0.631606
w 3 -2 0.989872
w 4 3 1
w 4 -3 0
w 5 4 0
w 5 -4 1
w 6 5 0
w 6 -5 1
w 7 6 1
w 7 -6 0
w 8 7 0
w 8 -7 1
w 9 8 0
w 9 -8 1
w 10 9 0.785555
w 10 -9 0.111775
w 11 10 0.0340425
w 11 -10 0.553118
w 12 11 0
w 12 -11 1
w 13 12 0
w 13 -12 1
w 14 13 0
w 14 -13 1
w 15 14 0
w 15 -14 1
w 16 15 0.935856
w 16 -15 0.70086
w 17 16 1
w 17 -16 0
w 18 17 0
w 18 -17 1
w 19 18 1
w 19 -18 0
w 20 19 0
w 20 -19 1
w 21 20 0
w 21 -20 1
w 22 21 1
w 22 -21 0
w 23 1 0
w 23 -1 1
w 24 23 2 0.46053
w 24 23 -2 0.191589
w 24 -23 2 0.661869
w 24 -23 -2 0.494572
w 25 24 3 0
w 25 24 -3 1
w 25 -24 3 1
w 25 -24 -3 0
w 26 25 4 1
w 26 25 -4 1
w 26 -25 4 0
w 26 -25 -4 1
w 27 26 5 0.942367
w 27 26 -5 0.671015
w 27 -26 5 0.761089
w 27 -26 -5 0.975352
w 28 27 6 1
w 28 27 -6 1
w 28 -27 6 0
w 28 -27 -6 1
w 29 28 7 0.653912
w 29 28 -7 0.317935
w 29 -28 7 0.673718
w 29 -28 -7 0.328887
w 30 29 8 0
w 30 29 -8 1
w 30 -29 8 0
w 30 -29 -8 0
w 31 30 9 1
w 31 30 -9 0
w 31 -30 9 1
w 31 -30 -9 0
w 32 31 10 0.547952
w 32 31 -10 0.724601
w 32 -31 10 0.888219
w 32 -31 -10 0.78946
w 33 32 11 0.723581
w 33 32 -11 0.731827
w 33 -32 11 0.56006
w 33 -32 -11 0.48467
w 34 33 12 1
w 34 33 -12 1
w 34 -33 12 0
w 34 -33 -12 1
w 35 34 13 0
w 35 34 -13 0
w 35 -34 13 0
w 35 -34 -13 1
w 36 35 14 0
w 36 35 -14 1
w 36 -35 14 0
w 36 -35 -14 1
w 37 36 15 0
w 37 36 -15 0
w 37 -36 15 1
w 37 -36 -15 1
w 38 37 16 0
w 38 37 -16 0
w 38 -37 16 1
w 38 -37 -16 1
w 39 38 17 1
w 39 38 -17 1
w 39 -38 17 0
w 39 -38 -17 1
w 40 39 18 0.570642
w 40 39 -18 0.195028
w 40 -39 18 0.318005
w 40 -39 -18 0.897843
w 41 40 19 0.975137
w 41 40 -19 0.993177
w 41 -40 19 0.959496
w 41 -40 -19 0.950204
w 42 41 20 0.497574
w 42 41 -20 0.323019
w 42 -41 20 0.0523296
w 42 -41 -20 0.825068
w 43 42 21 0
w 43 42 -21 0
w 43 -42 21 0
w 43 -42 -21 1
w 44 43 22 0
w 44 43 -22 1
w 44 -43 22 1
w 44 -43 -22 1
w 45 23 1
w 45 -23 0
w 46 45 24 0
w 46 45 -24 1
w 46 -45 24 1
w 46 -45 -24 0
w 47 46 25 1
w 47 46 -25 1
w 47 -46 25 0
w 47 -46 -25 1
w 48 47 26 0.0297151
w 48 47 -26 0.923412
w 48 -47 26 0.769951
w 48 -47 -26 0.791943
w 49 48 27 0
w 49 48 -27 1
w 49 -48 27 1
w 49 -48 -27 0
w 50 49 28 0
w 50 49 -28 0
w 50 -49 28 1
w 50 -49 -28 1
w 51 50 29 0
w 51 50 -29 1
w 51 -50 29 1
w 51 -50 -29 1
w 52 51 30 0
w 52 51 -30 0
w 52 -51 30 1
w 52 -51 -30 1
w 53 52 31 0
w 53 52 -31 1
w 53 -52 31 1
w 53 -52 -31 1
w 54 53 32 0
w 54 53 -32 1
w 54 -53 32 0
w 54 -53 -32 1
w 55 54 33 0.694856
w 55 54 -33 0.745255
w 55 -54 33 0.600145
w 55 -54 -33 0.94091
w 56 55 34 1
w 56 55 -34 1
w 56 -55 34 1
w 56 -55 -34 0
w 57 56 35 1
w 57 56 -35 0
w 57 -56 35 1
w 57 -56 -35 1
w 58 57 36 0.214164
w 58 57 -36 0.550232
w 58 -57 36 0.665014
w 58 -57 -36 0.973145
w 59 58 37 0
w 59 58 -37 1
w 59 -58 37 1
w 59 -58 -37 1
w 60 59 38 0.460163
w 60 59 -38 0.82791
w 60 -59 38 0.768965
w 60 -59 -38 0.734033
w 61 60 39 1
w 61 60 -39 1
w 61 -60 39 0
w 61 -60 -39 1
w 62 61 40 1
w 62 61 -40 0
w 62 -61 40 1
w 62 -61 -40 0
w 63 62 41 0
w 63 62 -41 1
w 63 -62 41 0
w 63 -62 -41 1
w 64 63 42 0
w 64 63 -42 1
w 64 -63 42 1
w 64 -63 -42 0
w 65 64 43 0
w 65 64 -43 0
w 65 -64 43 1
w 65 -64 -43 1
w 66 65 44 0
w 66 65 -44 1
w 66 -65 44 0
w 66 -65 -44 1
w 67 45 0.458516
w 67 -45 0.710418
w 68 67 46 1
w 68 67 -46 0
w 68 -67 46 1
w 68 -67 -46 0
w 69 68 47 0.552032
w 69 68 -47 0.464569
w 69 -68 47 0.579625
w 69 -68 -47 0.0822468
w 70 69 48 0
w 70 69 -48 0
w 70 -69 48 0
w 70 -69 -48 1
w 71 70 49 0
w 71 70 -49 1
w 71 -70 49 1
w 71 -70 -49 0
w 72 71 50 0
w 72 71 -50 1
w 72 -71 50 1
w 72 -71 -50 0
w 73 72 51 0
w 73 72 -51 0
w 73 -72 51 1
w 73 -72 -51 1
w 74 73 52 0
w 74 73 -52 0
w 74 -73 52 1
w 74 -73 -52 1
w 75 74 53 0.83382
w 75 74 -53 0.274772
w 75 -74 53 0.214921
w 75 -74 -53 0.413445
w 76 75 54 1
w 76 75 -54 1
w 76 -75 54 0
w 76 -75 -54 0
w 77 76 55 1
w 77 76 -55 0
w 77 -76 55 0
w 77 -76 -55 0
w 78 77 56 0
w 78 77 -56 0
w 78 -77 56 1
w 78 -77 -56 1
w 79 78 57 0
w 79 78 -57 1
w 79 -78 57 1
w 79 -78 -57 1
w 80 79 58 0
w 80 79 -58 1
w 80 -79 58 1
w 80 -79 -58 1
w 81 80 59 0.956962
w 81 80 -59 0.631652
w 81 -80 59 0.231658
w 81 -80 -59 0.171883
w 82 81 60 0
w 82 81 -60 1
w 82 -81 60 0
w 82 -81 -60 0
w 83 82 61 1
w 83 82 -61 1
w 83 -82 61 1
w 83 -82 -61 0
w 84 83 62 1
w 84 83 -62 1
w 84 -83 62 0
w 84 -83 -62 0
w 85 84 63 0
w 85 84 -63 0
w 85 -84 63 1
w 85 -84 -63 0
w 86 85 64 1
w 86 85 -64 1
w 86 -85 64 1
w 86 -85 -64 0
w 87 86 65 1
w 87 86 -65 0
w 87 -86 65 0
w 87 -86 -65 1
w 88 87 66 0
w 88 87 -66 0
w 88 -87 66 0
w 88 -87 -66 1
w 89 67 1
w 89 -67 0
w 90 89 68 0
w 90 89 -68 0
w 90 -89 68 1
w 90 -89 -68 1
w 91 90 69 1
w 91 90 -69 1
w 91 -90 69 0
w 91 -90 -69 0
w 92 91 70 1
w 92 91 -70 0
w 92 -91 70 0
w 92 -91 -70 1
w 93 92 71 0
w 93 92 -71 1
w 93 -92 71 1
w 93 -92 -71 1
w 94 93 72 0
w 94 93 -72 1
w 94 -93 72 1
w 94 -93 -72 0
w 95 94 73 1
w 95 94 -73 1
w 95 -94 73 0
w 95 -94 -73 0
w 96 95 74 0
w 96 95 -74 0
w 96 -95 74 0
w 96 -95 -74 1
w 97 96 75 1
w 97 96 -75 1
w 97 -96 75 0
w 97 -96 -75 1
w 98 97 76 1
w 98 97 -76 1
w 98 -97 76 0
w 98 -97 -76 0
w 99 98 77 0
w 99 98 -77 0
w 99 -98 77 0
w 99 -98 -77 1
w 100 99 78 0
w 100 99 -78 1
w 100 -99 78 1
w 100 -99 -78 1
w 101 100 79 1
w 101 100 -79 1
w 101 -100 79 0
w 101 -100 -79 1
w 102 101 80 1
w 102 101 -80 0
w 102 -101 80 0
w 102 -101 -80 1
w 103 102 81 0.538672
w 103 102 -81 0.62251
w 103 -102 81 0.0353135
w 103 -102 -81 0.28306
w 104 103 82 1
w 104 103 -82 1
w 104 -103 82 0
w 104 -103 -82 1
w 105 104 83 1
w 105 104 -83 0
w 105 -104 83 1
w 105 -104 -83 0
w 106 105 84 1
w 106 105 -84 1
w 106 -105 84 1
w 106 -105 -84 0
w 107 106 85 0
w 107 106 -85 1
w 107 -106 85 0
w 107 -106 -85 0
w 108 107 86 1
w 108 107 -86 0
w 108 -107 86 1
w 108 -107 -86 0
w 109 108 87 1
w 109 108 -87 1
w 109 -108 87 0
w 109 -108 -87 1
w 110 109 88 1
w 110 109 -88 0
w 110 -109 88 0
w 110 -109 -88 0
w 111 89 1
w 111 -89 0
w 112 111 90 0
w 112 111 -90 0
w 112 -111 90 0
w 112 -111 -90 1
w 113 112 91 0
w 113 112 -91 1
w 113 -112 91 0
w 113 -112 -91 0
w 114 113 92 1
w 114 113 -92 0
w 114 -113 92 0
w 114 -113 -92 0
w 115 114 93 1
w 115 114 -93 1
w 115 -114 93 0
w 115 -114 -93 0
w 116 115 94 0
w 116 115 -94 1
w 116 -115 94 1
w 116 -115 -94 1
w 117 116 95 1
w 117 116 -95 1
w 117 -116 95 0
w 117 -116 -95 0
w 118 117 96 0
w 118 117 -96 0
w 118 -117 96 0
w 118 -117 -96 1
w 119 118 97 0.897853
w 119 118 -97 0.65891
w 119 -118 97 0.144388
w 119 -118 -97 0.453525
w 120 119 98 0
w 120 119 -98 1
w 120 -119 98 0
w 120 -119 -98 0
w 121 120 99 0
w 121 120 -99 1
w 121 -120 99 1
w 121 -120 -99 0
w 122 121 100 0.336375
w 122 121 -100 0.724967
w 122 -121 100 0.979462
w 122 -121 -100 0.593668
w 123 122 101 0
w 123 122 -101 1
w 123 -122 101 1
w 123 -122 -101 1
w 124 123 102 0
w 124 123 -102 0
w 124 -123 102 0
w 124 -123 -102 1
w 125 124 103 0
w 125 124 -103 0
w 125 -124 103 1
w 125 -124 -103 1
w 126 125 104 1
w 126 125 -104 0
w 126 -125 104 1
w 126 -125 -104 1
w 127 126 105 0
w 127 126 -105 0
w 127 -126 105 1
w 127 -126 -105 0
w 128 127 106 0
w 128 127 -106 1
w 128 -127 106 1
w 128 -127 -106 0
w 129 128 107 0.564355
w 129 128 -107 0.771354
w 129 -128 107 0.495913
w 129 -128 -107 0.293698
w 130 129 108 0
w 130 129 -108 1
w 130 -129 108 0
w 130 -129 -108 0
w 131 130 109 1
w 131 130 -109 1
w 131 -130 109 1
w 131 -130 -109 0
w 132 131 110 0
w 132 131 -110 0
w 132 -131 110 0
w 132 -131 -110 1
w 133 111 0
w 133 -111 1
w 134 133 112 0
w 134 133 -112 0
w 134 -133 112 0
w 134 -133 -112 1
w 135 134 113 0.161248
w 135 134 -113 0.31778
w 135 -134 113 0.63564
w 135 -134 -113 0.725603
w 136 135 114 1
w 136 135 -114 0
w 136 -135 114 1
w 136 -135 -114 1
w 137 136 115 0
w 137 136 -115 0
w 137 -136 115 1
w 137 -136 -115 0
w 138 137 116 0.166303
w 138 137 -116 0.0269468
w 138 -137 116 0.573906
w 138 -137 -116 0.4087
w 139 138 117 0.564623
w 139 138 -117 0.934834
w 139 -138 117 0.233293
w 139 -138 -117 0.216605
w 140 139 118 1
w 140 139 -118 1
w 140 -139 118 1
w 140 -139 -118 0
w 141 140 119 0
w 141 140 -119 1
w 141 -140 119 1
w 141 -140 -119 0
w 142 141 120 0.663238
w 142 141 -120 0.7194
w 142 -141 120 0.78606
w 142 -141 -120 0.87164
w 143 142 121 1
w 143 142 -121 0
w 143 -142 121 1
w 143 -142 -121 0
w 144 143 122 0
w 144 143 -122 0
w 144 -143 122 1
w 144 -143 -122 1
w 145 144 123 1
w 145 144 -123 1
w 145 -144 123 1
w 145 -144 -123 0
w 146 145 124 1
w 146 145 -124 0
w 146 -145 124 1
w 146 -145 -124 1
w 147 146 125 0.581648
w 147 146 -125 0.6071
w 147 -146 125 0.42503
w 147 -146 -125 0.169495
w 148 147 126 1
w 148 147 -126 0
w 148 -147 126 1
w 148 -147 -126 1
w 149 148 127 1
w 149 148 -127 0
w 149 -148 127 1
w 149 -148 -127 1
w 150 149 128 1
w 150 149 -128 0
w 150 -149 128 0
w 150 -149 -128 1
w 151 150 129 1
w 151 150 -129 0
w 151 -150 129 0
w 151 -150 -129 1
w 152 151 130 0
w 152 151 -130 0
w 152 -151 130 0
w 152 -151 -130 1
w 153 152 131 0
w 153 152 -131 1
w 153 -152 131 1
w 153 -152 -131 0
w 154 153 132 1
w 154 153 -132 1
w 154 -153 132 1
w 154 -153 -132 0
w 155 133 0.00415037
w 155 -133 0.861981
w 156 155 134 1
w 156 155 -134 0
w 156 -155 134 1
w 156 -155 -134 1
w 157 156 135 0.595537
w 157 156 -135 0.744073
w 157 -156 135 0.21112
w 157 -156 -135 0.15513
w 158 157 136 0
w 158 157 -136 1
w 158 -157 136 1
w 158 -157 -136 0
w 159 158 137 1
w 159 158 -137 1
w 159 -158 137 0
w 159 -158 -137 0
w 160 159 138 0
w 160 159 -138 1
w 160 -159 138 0
w 160 -159 -138 0
w 161 160 139 0.305169
w 161 160 -139 0.858266
w 161 -160 139 0.724539
w 161 -160 -139 0.309319
w 162 161 140 0
w 162 161 -140 1
w 162 -161 140 0
w 162 -161 -140 1
w 163 162 141 0.569306
w 163 162 -141 0.106213
w 163 -162 141 0.615639
w 163 -162 -141 0.780427
w 164 163 142 0
w 164 163 -142 0
w 164 -163 142 0
w 164 -163 -142 1
w 165 164 143 1
w 165 164 -143 0
w 165 -164 143 0
w 165 -164 -143 0
w 166 165 144 0
w 166 165 -144 1
w 166 -165 144 1
w 166 -165 -144 0
w 167 166 145 0.270282
w 167 166 -145 0.597414
w 167 -166 145 0.655616
w 167 -166 -145 0.579601
w 168 167 146 0
w 168 167 -146 1
w 168 -167 146 1
w 168 -167 -146 1
w 169 168 147 0.608092
w 169 168 -147 0.0376219
w 169 -168 147 0.602045
w 169 -168 -147 0.388518
w 170 169 148 1
w 170 169 -148 1
w 170 -169 148 1
w 170 -169 -148 0
w 171 170 149 1
w 171 170 -149 1
w 171 -170 149 1
w 171 -170 -149 0
w 172 171 150 0
w 172 171 -150 1
w 172 -171 150 0
w 172 -171 -150 0
w 173 172 151 0.825279
w 173 172 -151 0.723244
w 173 -172 151 0.590374
w 173 -172 -151 0.40488
w 174 173 152 0
w 174 173 -152 1
w 174 -173 152 1
w 174 -173 -152 1
w 175 174 153 0
w 175 174 -153 1
w 175 -174 153 0
w 175 -174 -153 1
w 176 175 154 1
w 176 175 -154 0
w 176 -175 154 0
w 176 -175 -154 1
w 177 155 1
w 177 -155 0
w 178 177 156 1
w 178 177 -156 1
w 178 -177 156 0
w 178 -177 -156 0
w 179 178 157 0.914898
w 179 178 -157 0.854546
w 179 -178 157 0.919019
w 179 -178 -157 0.849656
w 180 179 158 1
w 180 179 -158 0
w 180 -179 158 0
w 180 -179 -158 1
w 181 180 159 1
w 181 180 -159 0
w 181 -180 159 0
w 181 -180 -159 0
w 182 181 160 1
w 182 181 -160 0
w 182 -181 160 0
w 182 -181 -160 0
w 183 182 161 0.0951706
w 183 182 -161 0.133245
w 183 -182 161 0.812364
w 183 -182 -161 0.379615
w 184 183 162 1
w 184 183 -162 0
w 184 -183 162 0
w 184 -183 -162 1
w 185 184 163 1
w 185 184 -163 0
w 185 -184 163 0
w 185 -184 -163 1
w 186 185 164 1
w 186 185 -164 0
w 186 -185 164 0
w 186 -185 -164 1
w 187 186 165 0.400058
w 187 186 -165 0.612331
w 187 -186 165 0.645505
w 187 -186 -165 0.79371
w 188 187 166 1
w 188 187 -166 0
w 188 -187 166 0
w 188 -187 -166 0
w 189 188 167 0.718259
w 189 188 -167 0.953636
w 189 -188 167 0.68254
w 189 -188 -167 0.0978744
w 190 189 168 0
w 190 189 -168 1
w 190 -189 168 0
w 190 -189 -168 1
w 191 190 169 1
w 191 190 -169 0
w 191 -190 169 1
w 191 -190 -169 0
w 192 191 170 0
w 192 191 -170 1
w 192 -191 170 0
w 192 -191 -170 1
w 193 192 171 0
w 193 192 -171 0
w 193 -192 171 0
w 193 -192 -171 1
w 194 193 172 0
w 194 193 -172 1
w 194 -193 172 0
w 194 -193 -172 0
w 195 194 173 1
w 195 194 -173 0
w 195 -194 173 1
w 195 -194 -173 0
w 196 195 174 0
w 196 195 -174 1
w 196 -195 174 0
w 196 -195 -174 0
w 197 196 175 0
w 197 196 -175 1
w 197 -196 175 0
w 197 -196 -175 0
w 198 197 176 0
w 198 197 -176 1
w 198 -197 176 1
w 198 -197 -176 0
w 199 177 0
w 199 -177 1
w 200 199 178 0
w 200 199 -178 1
w 200 -199 178 0
w 200 -199 -178 0
w 201 200 179 0
w 201 200 -179 0
w 201 -200 179 1
w 201 -200 -179 0
w 202 201 180 1
w 202 201 -180 0
w 202 -201 180 0
w 202 -201 -180 0
w 203 202 181 1
w 203 202 -181 1
w 203 -202 181 0
w 203 -202 -181 1
w 204 203 182 0
w 204 203 -182 1
w 204 -203 182 0
w 204 -203 -182 1
w 205 204 183 0.233649
w 205 204 -183 0.59648
w 205 -204 183 0.427627
w 205 -204 -183 0.0908216
w 206 205 184 1
w 206 205 -184 1
w 206 -205 184 0
w 206 -205 -184 1
w 207 206 185 0
w 207 206 -185 1
w 207 -206 185 0
w 207 -206 -185 0
w 208 207 186 0
w 208 207 -186 0
w 208 -207 186 1
w 208 -207 -186 0
w 209 208 187 0.831982
w 209 208 -187 0.0727345
w 209 -208 187 0.0611193
w 209 -208 -187 0.358706
w 210 209 188 1
w 210 209 -188 0
w 210 -209 188 0
w 210 -209 -188 1
w 211 210 189 0.954448
w 211 210 -189 0.898908
w 211 -210 189 0.585354
w 211 -210 -189 0.382075
w 212 211 190 0.315722
w 212 211 -190 0.566082
w 212 -211 190 0.508539
w 212 -211 -190 0.265662
w 213 212 191 0.19365
w 213 212 -191 0.462464
w 213 -212 191 0.851617
w 213 -212 -191 0.60377
w 214 213 192 0.43023
w 214 213 -192 0.251239
w 214 -213 192 0.869053
w 214 -213 -192 0.194176
w 215 214 193 0
w 215 214 -193 0
w 215 -214 193 1
w 215 -214 -193 0
w 216 215 194 0
w 216 215 -194 1
w 216 -215 194 0
w 216 -215 -194 0
w 217 216 195 0.537219
w 217 216 -195 0.563867
w 217 -216 195 0.891474
w 217 -216 -195 0.122572
w 218 217 196 0.881203
w 218 217 -196 0.438294
w 218 -217 196 0.512024
w 218 -217 -196 0.389742
w 219 218 197 0
w 219 218 -197 1
w 219 -218 197 1
w 219 -218 -197 1
w 220 219 198 0
w 220 219 -198 1
w 220 -219 198 0
w 220 -219 -198 1
w 221 199 0.478934
w 221 -199 0.593576
w 222 221 200 0.592201
w 222 221 -200 0.409206
w 222 -221 200 0.161858
w 222 -221 -200 0.0785962
w 223 222 201 0
w 223 222 -201 0
w 223 -222 201 1
w 223 -222 -201 0
w 224 223 202 1
w 224 223 -202 0
w 224 -223 202 0
w 224 -223 -202 0
w 225 224 203 0.709848
w 225 224 -203 0.891499
w 225 -224 203 0.512244
w 225 -224 -203 0.984663
w 226 225 204 0
w 226 225 -204 1
w 226 -225 204 1
w 226 -225 -204 0
w 227 226 205 1
w 227 226 -205 0
w 227 -226 205 0
w 227 -226 -205 0
w 228 227 206 1
w 228 227 -206 0
w 228 -227 206 1
w 228 -227 -206 1
w 229 228 207 1
w 229 228 -207 1
w 229 -228 207 0
w 229 -228 -207 0
w 230 229 208 0
w 230 229 -208 1
w 230 -229 208 1
w 230 -229 -208 1
w 231 230 209 1
w 231 230 -209 0
w 231 -230 209 0
w 231 -230 -209 1
w 232 231 210 0
w 232 231 -210 0
w 232 -231 210 1
w 232 -231 -210 1
w 233 232 211 0.20733
w 233 232 -211 0.820681
w 233 -232 211 0.279863
w 233 -232 -211 0.786719
w 234 233 212 0.475452
w 234 233 -212 0.95831
w 234 -233 212 0.392524
w 234 -233 -212 0.832899
w 235 234 213 1
w 235 234 -213 0
w 235 -234 213 1
w 235 -234 -213 1
w 236 235 214 0
w 236 235 -214 1
w 236 -235 214 0
w 236 -235 -214 1
w 237 236 215 1
w 237 236 -215 0
w 237 -236 215 1
w 237 -236 -215 1
w 238 237 216 0.645528
w 238 237 -216 0.0838917
w 238 -237 216 0.0983769
w 238 -237 -216 0.752402
w 239 238 217 1
w 239 238 -217 0
w 239 -238 217 1
w 239 -238 -217 0
w 240 239 218 0
w 240 239 -218 0
w 240 -239 218 0
w 240 -239 -218 1
w 241 240 219 1
w 241 240 -219 0
w 241 -240 219 1
w 241 -240 -219 0
w 242 241 220 0
w 242 241 -220 0
w 242 -241 220 1
w 242 -241 -220 0
w 243 221 0
w 243 -221 1
w 244 243 222 0.94388
w 244 243 -222 0.311115
w 244 -243 222 0.358376
w 244 -243 -222 0.848744
w 245 244 223 0.442268
w 245 244 -223 0.947121
w 245 -244 223 0.709045
w 245 -244 -223 0.859098
w 246 245 224 0.668777
w 246 245 -224 0.0966096
w 246 -245 224 0.146276
w 246 -245 -224 0.415229
w 247 246 225 1
w 247 246 -225 1
w 247 -246 225 1
w 247 -246 -225 0
w 248 247 226 0
w 248 247 -226 1
w 248 -247 226 1
w 248 -247 -226 0
w 249 248 227 0
w 249 248 -227 1
w 249 -248 227 1
w 249 -248 -227 1
w 250 249 228 1
w 250 249 -228 1
w 250 -249 228 0
w 250 -249 -228 1
w 251 250 229 0
w 251 250 -229 1
w 251 -250 229 1
w 251 -250 -229 1
w 252 251 230 0
w 252 251 -230 0
w 252 -251 230 0
w 252 -251 -230 1
w 253 252 231 0
w 253 252 -231 0
w 253 -252 231 1
w 253 -252 -231 1
w 254 253 232 0
w 254 253 -232 1
w 254 -253 232 1
w 254 -253 -232 1
w 255 254 233 0
w 255 254 -233 1
w 255 -254 233 0
w 255 -254 -233 1
w 256 255 234 1
w 256 255 -234 0
w 256 -255 234 0
w 256 -255 -234 0
w 257 256 235 1
w 257 256 -235 0
w 257 -256 235 1
w 257 -256 -235 0
w 258 257 236 1
w 258 257 -236 0
w 258 -257 236 1
w 258 -257 -236 1
w 259 258 237 1
w 259 258 -237 1
w 259 -258 237 1
w 259 -258 -237 0
w 260 259 238 0.958053
w 260 259 -238 0.652479
w 260 -259 238 0.50835
w 260 -259 -238 0.490072
w 261 260 239 0
w 261 260 -239 0
w 261 -260 239 1
w 261 -260 -239 0
w 262 261 240 0
w 262 261 -240 0
w 262 -261 240 1
w 262 -261 -240 0
w 263 262 241 1
w 263 262 -241 0
w 263 -262 241 0
w 263 -262 -241 0
w 264 263 242 1
w 264 263 -242 0
w 264 -263 242 0
w 264 -263 -242 1
w 265 243 1
w 265 -243 0
w 266 265 244 0.954286
w 266 265 -244 0.262851
w 266 -265 244 0.728955
w 266 -265 -244 0.912339
w 267 266 245 0.237305
w 267 266 -245 0.402411
w 267 -266 245 0.51213
w 267 -266 -245 0.11806
w 268 267 246 0.543204
w 268 267 -246 0.897877
w 268 -267 246 0.629471
w 268 -267 -246 0.619938
w 269 268 247 0
w 269 268 -247 0
w 269 -268 247 0
w 269 -268 -247 1
w 270 269 248 0.203419
w 270 269 -248 0.844301
w 270 -269 248 0.0188388
w 270 -269 -248 0.395769
w 271 270 249 0.671451
w 271 270 -249 0.873751
w 271 -270 249 0.841673
w 271 -270 -249 0.342194
w 272 271 250 0
w 272 271 -250 1
w 272 -271 250 1
w 272 -271 -250 1
w 273 272 251 0
w 273 272 -251 1
w 273 -272 251 0
w 273 -272 -251 1
w 274 273 252 0.557268
w 274 273 -252 0.568749
w 274 -273 252 0.769851
w 274 -273 -252 0.186739
w 275 274 253 0
w 275 274 -253 0
w 275 -274 253 1
w 275 -274 -253 1
w 276 275 254 1
w 276 275 -254 1
w 276 -275 254 0
w 276 -275 -254 0
w 277 276 255 1
w 277 276 -255 0
w 277 -276 255 1
w 277 -276 -255 0
w 278 277 256 0
w 278 277 -256 0
w 278 -277 256 0
w 278 -277 -256 1
w 279 278 257 0
w 279 278 -257 0
w 279 -278 257 1
w 279 -278 -257 0
w 280 279 258 0.127708
w 280 279 -258 0.172748
w 280 -279 258 0.511695
w 280 -279 -258 0.897559
w 281 280 259 0
w 281 280 -259 1
w 281 -280 259 1
w 281 -280 -259 0
w 282 281 260 0.682463
w 282 281 -260 0.653133
w 282 -281 260 0.0800949
w 282 -281 -260 0.165301
w 283 282 261 1
w 283 282 -261 0
w 283 -282 261 0
w 283 -282 -261 0
w 284 283 262 0
w 284 283 -262 0
w 284 -283 262 1
w 284 -283 -262 0
w 285 284 263 1
w 285 284 -263 1
w 285 -284 263 0
w 285 -284 -263 0
w 286 285 264 1
w 286 285 -264 1
w 286 -285 264 0
w 286 -285 -264 0
w 287 265 0
w 287 -265 1
w 288 287 266 0
w 288 287 -266 1
w 288 -287 266 1
w 288 -287 -266 0
w 289 288 267 0
w 289 288 -267 0
w 289 -288 267 1
w 289 -288 -267 1
w 290 289 268 0
w 290 289 -268 1
w 290 -289 268 1
w 290 -289 -268 1
w 291 290 269 0
w 291 290 -269 0
w 291 -290 269 0
w 291 -290 -269 1
w 292 291 270 0
w 292 291 -270 0
w 292 -291 270 1
w 292 -291 -270 1
w 293 292 271 0.272337
w 293 292 -271 0.685293
w 293 -292 271 0.320342
w 293 -292 -271 0.0138815
w 294 293 272 0
w 294 293 -272 1
w 294 -293 272 0
w 294 -293 -272 0
w 295 294 273 0
w 295 294 -273 1
w 295 -294 273 0
w 295 -294 -273 1
w 296 295 274 1
w 296 295 -274 1
w 296 -295 274 0
w 296 -295 -274 0
w 297 296 275 0
w 297 296 -275 1
w 297 -296 275 1
w 297 -296 -275 0
w 298 297 276 1
w 298 297 -276 0
w 298 -297 276 0
w 298 -297 -276 0
w 299 298 277 0
w 299 298 -277 1
w 299 -298 277 1
w 299 -298 -277 0
w 300 299 278 0
w 300 299 -278 0
w 300 -299 278 1
w 300 -299 -278 0
w 301 300 279 0
w 301 300 -279 0
w 301 -300 279 1
w 301 -300 -279 0
w 302 301 280 0
w 302 301 -280 1
w 302 -301 280 1
w 302 -301 -280 0
w 303 302 281 0
w 303 302 -281 0
w 303 -302 281 1
w 303 -302 -281 1
w 304 303 282 0.298926
w 304 303 -282 0.424907
w 304 -303 282 0.490309
w 304 -303 -282 0.831364
w 305 304 283 1
w 305 304 -283 0
w 305 -304 283 1
w 305 -304 -283 1
w 306 305 284 0.791215
w 306 305 -284 0.0152883
w 306 -305 284 0.258425
w 306 -305 -284 0.146036
w 307 306 285 1
w 307 306 -285 0
w 307 -306 285 0
w 307 -306 -285 0
w 308 307 286 0
w 308 307 -286 0
w 308 -307 286 1
w 308 -307 -286 0
w 309 287 1
w 309 -287 0
w 310 309 288 1
w 310 309 -288 1
w 310 -309 288 0
w 310 -309 -288 0
w 311 310 289 0
w 311 310 -289 0
w 311 -310 289 0
w 311 -310 -289 1
w 312 311 290 1
w 312 311 -290 0
w 312 -311 290 0
w 312 -311 -290 1
w 313 312 291 0.854678
w 313 312 -291 0.488087
w 313 -312 291 0.220534
w 313 -312 -291 0.423071
w 314 313 292 0
w 314 313 -292 1
w 314 -313 292 1
w 314 -313 -292 1
w 315 314 293 1
w 315 314 -293 0
w 315 -314 293 1
w 315 -314 -293 1
w 316 315 294 1
w 316 315 -294 0
w 316 -315 294 1
w 316 -315 -294 1
w 317 316 295 0.496175
w 317 316 -295 0.850414
w 317 -316 295 0.373091
w 317 -316 -295 0.811266
w 318 317 296 0
w 318 317 -296 0
w 318 -317 296 1
w 318 -317 -296 0
w 319 318 297 1
w 319 318 -297 1
w 319 -318 297 0
w 319 -318 -297 1
w 320 319 298 0.448471
w 320 319 -298 0.146416
w 320 -319 298 0.523358
w 320 -319 -298 0.995471
w 321 320 299 0.0664228
w 321 320 -299 0.410805
w 321 -320 299 0.402501
w 321 -320 -299 0.84553
w 322 321 300 1
w 322 321 -300 0
w 322 -321 300 0
w 322 -321 -300 0
w 323 322 301 1
w 323 322 -301 0
w 323 -322 301 0
w 323 -322 -301 1
w 324 323 302 0
w 324 323 -302 1
w 324 -323 302 1
w 324 -323 -302 1
w 325 324 303 0
w 325 324 -303 0
w 325 -324 303 0
w 325 -324 -303 1
w 326 325 304 0
w 326 325 -304 0
w 326 -325 304 1
w 326 -325 -304 1
w 327 326 305 0.401333
w 327 326 -305 0.458755
w 327 -326 305 0.377643
w 327 -326 -305 0.803834
w 328 327 306 0
w 328 327 -306 1
w 328 -327 306 0
w 328 -327 -306 0
w 329 328 307 0.163495
w 329 328 -307 0.18434
w 329 -328 307 0.295639
w 329 -328 -307 0.23235
w 330 329 308 0.560038
w 330 329 -308 0.594378
w 330 -329 308 0.480651
w 330 -329 -308 0.186539
w 331 309 1
w 331 -309 0
w 332 331 310 0
w 332 331 -310 0
w 332 -331 310 1
w 332 -331 -310 1
w 333 332 311 0
w 333 332 -311 0
w 333 -332 311 0
w 333 -332 -311 1
w 334 333 312 1
w 334 333 -312 1
w 334 -333 312 0
w 334 -333 -312 0
w 335 334 313 0.124556
w 335 334 -313 0.732238
w 335 -334 313 0.885792
w 335 -334 -313 0.967062
w 336 335 314 0.0701324
w 336 335 -314 0.262701
w 336 -335 314 0.128083
w 336 -335 -314 0.859823
w 337 336 315 0.722461
w 337 336 -315 0.340474
w 337 -336 315 0.00927743
w 337 -336 -315 0.949815
w 338 337 316 1
w 338 337 -316 1
w 338 -337 316 0
w 338 -337 -316 0
w 339 338 317 1
w 339 338 -317 0
w 339 -338 317 1
w 339 -338 -317 1
w 340 339 318 1
w 340 339 -318 0
w 340 -339 318 1
w 340 -339 -318 1
w 341 340 319 0.845961
w 341 340 -319 0.412619
w 341 -340 319 0.615057
w 341 -340 -319 0.731753
w 342 341 320 1
w 342 341 -320 1
w 342 -341 320 0
w 342 -341 -320 0
w 343 342 321 1
w 343 342 -321 0
w 343 -342 321 1
w 343 -342 -321 1
w 344 343 322 1
w 344 343 -322 0
w 344 -343 322 0
w 344 -343 -322 0
w 345 344 323 0
w 345 344 -323 1
w 345 -344 323 1
w 345 -344 -323 1
w 346 345 324 1
w 346 345 -324 0
w 346 -345 324 0
w 346 -345 -324 1
w 347 346 325 0.332701
w 347 346 -325 0.45997
w 347 -346 325 0.328977
w 347 -346 -325 0.947758
w 348 347 326 0
w 348 347 -326 1
w 348 -347 326 0
w 348 -347 -326 1
w 349 348 327 0
w 349 348 -327 0
w 349 -348 327 1
w 349 -348 -327 1
w 350 349 328 0
w 350 349 -328 0
w 350 -349 328 1
w 350 -349 -328 0
w 351 350 329 0.120564
w 351 350 -329 0.748049
w 351 -350 329 0.00430822
w 351 -350 -329 0.699801
w 352 351 330 0
w 352 351 -330 1
w 352 -351 330 0
w 352 -351 -330 1
w 353 331 1
w 353 -331 0
w 354 353 332 0.57343
w 354 353 -332 0.832633
w 354 -353 332 0.971771
w 354 -353 -332 0.282089
w 355 354 333 0
w 355 354 -333 0
w 355 -354 333 1
w 355 -354 -333 0
w 356 355 334 1
w 356 355 -334 0
w 356 -355 334 1
w 356 -355 -334 1
w 357 356 335 0
w 357 356 -335 0
w 357 -356 335 0
w 357 -356 -335 1
w 358 357 336 0.894452
w 358 357 -336 0.592837
w 358 -357 336 0.988711
w 358 -357 -336 0.60052
w 359 358 337 0.540885
w 359 358 -337 0.920597
w 359 -358 337 0.165386
w 359 -358 -337 0.425761
w 360 359 338 0
w 360 359 -338 1
w 360 -359 338 1
w 360 -359 -338 1
w 361 360 339 1
w 361 360 -339 1
w 361 -360 339 0
w 361 -360 -339 1
w 362 361 340 1
w 362 361 -340 0
w 362 -361 340 0
w 362 -361 -340 1
w 363 362 341 0
w 363 362 -341 1
w 363 -362 341 1
w 363 -362 -341 0
w 364 363 342 1
w 364 363 -342 1
w 364 -363 342 1
w 364 -363 -342 0
w 365 364 343 0
w 365 364 -343 1
w 365 -364 343 0
w 365 -364 -343 1
w 366 365 344 1
w 366 365 -344 1
w 366 -365 344 0
w 366 -365 -344 0
w 367 366 345 0
w 367 366 -345 1
w 367 -366 345 1
w 367 -366 -345 1
w 368 367 346 1
w 368 367 -346 0
w 368 -367 346 1
w 368 -367 -346 0
w 369 368 347 1
w 369 368 -347 0
w 369 -368 347 1
w 369 -368 -347 1
w 370 369 348 1
w 370 369 -348 0
w 370 -369 348 0
w 370 -369 -348 1
w 371 370 349 1
w 371 370 -349 0
w 371 -370 349 0
w 371 -370 -349 0
w 372 371 350 1
w 372 371 -350 0
w 372 -371 350 0
w 372 -371 -350 0
w 373 372 351 1
w 373 372 -351 1
w 373 -372 351 1
w 373 -372 -351 0
w 374 373 352 0
w 374 373 -352 0
w 374 -373 352 1
w 374 -373 -352 0
w 375 353 0
w 375 -353 1
w 376 375 354 0.0227722
w 376 375 -354 0.0732592
w 376 -375 354 0.815502
w 376 -375 -354 0.17768
w 377 376 355 0
w 377 376 -355 1
w 377 -376 355 0
w 377 -376 -355 1
w 378 377 356 0
w 378 377 -356 1
w 378 -377 356 1
w 378 -377 -356 1
w 379 378 357 1
w 379 378 -357 1
w 379 -378 357 0
w 379 -378 -357 1
w 380 379 358 0
w 380 379 -358 0
w 380 -379 358 1
w 380 -379 -358 0
w 381 380 359 1
w 381 380 -359 1
w 381 -380 359 0
w 381 -380 -359 0
w 382 381 360 1
w 382 381 -360 0
w 382 -381 360 0
w 382 -381 -360 1
w 383 382 361 1
w 383 382 -361 1
w 383 -382 361 0
w 383 -382 -361 1
w 384 383 362 1
w 384 383 -362 1
w 384 -383 362 1
w 384 -383 -362 0
w 385 384 363 0.325521
w 385 384 -363 0.584289
w 385 -384 363 0.285906
w 385 -384 -363 0.796059
w 386 385 364 0
w 386 385 -364 1
w 386 -385 364 0
w 386 -385 -364 0
w 387 386 365 1
w 387 386 -365 1
w 387 -386 365 0
w 387 -386 -365 1
w 388 387 366 0.464433
w 388 387 -366 0.376441
w 388 -387 366 0.556967
w 388 -387 -366 0.519678
w 389 388 367 1
w 389 388 -367 1
w 389 -388 367 1
w 389 -388 -367 0
w 390 389 368 0.262501
w 390 389 -368 0.660896
w 390 -389 368 0.453913
w 390 -389 -368 0.243376
w 391 390 369 0.0382021
w 391 390 -369 0.529283
w 391 -390 369 0.782476
w 391 -390 -369 0.089457
w 392 391 370 0
w 392 391 -370 1
w 392 -391 370 0
w 392 -391 -370 1
w 393 392 371 0
w 393 392 -371 1
w 393 -392 371 0
w 393 -392 -371 0
w 394 393 372 0.311281
w 394 393 -372 0.598536
w 394 -393 372 0.462266
w 394 -393 -372 0.830959
w 395 394 373 0
w 395 394 -373 1
w 395 -394 373 0
w 395 -394 -373 1
w 396 395 374 0
w 396 395 -374 0
w 396 -395 374 1
w 396 -395 -374 1
w 397 375 0
w 397 -375 1
w 398 397 376 1
w 398 397 -376 1
w 398 -397 376 1
w 398 -397 -376 0
w 399 398 377 1
w 399 398 -377 0
w 399 -398 377 1
w 399 -398 -377 1
w 400 399 378 0.788347
w 400 399 -378 0.339481
w 400 -399 378 0.807509
w 400 -399 -378 0.0996272
w 401 400 379 0.269775
w 401 400 -379 0.930586
w 401 -400 379 0.649727
w 401 -400 -379 0.211832
w 402 401 380 1
w 402 401 -380 1
w 402 -401 380 0
w 402 -401 -380 0
w 403 402 381 0.320454
w 403 402 -381 0.953891
w 403 -402 381 0.133922
w 403 -402 -381 0.122014
w 404 403 382 0
w 404 403 -382 1
w 404 -403 382 1
w 404 -403 -382 1
w 405 404 383 0.853189
w 405 404 -383 0.746405
w 405 -404 383 0.740493
w 405 -404 -383 0.794688
w 406 405 384 0.642703
w 406 405 -384 0.583035
w 406 -405 384 0.203273
w 406 -405 -384 0.450212
w 407 406 385 0
w 407 406 -385 1
w 407 -406 385 1
w 407 -406 -385 1
w 408 407 386 0.964311
w 408 407 -386 0.146904
w 408 -407 386 0.861554
w 408 -407 -386 0.469622
w 409 408 387 1
w 409 408 -387 1
w 409 -408 387 1
w 409 -408 -387 0
w 410 409 388 0.0467783
w 410 409 -388 0.792604
w 410 -409 388 0.61814
w 410 -409 -388 0.218447
w 411 410 389 0
w 411 410 -389 1
w 411 -410 389 1
w 411 -410 -389 1
w 412 411 390 0.135092
w 412 411 -390 0.807442
w 412 -411 390 0.449358
w 412 -411 -390 0.338364
w 413 412 391 0
w 413 412 -391 0
w 413 -412 391 0
w 413 -412 -391 1
w 414 413 392 0
w 414 413 -392 0
w 414 -413 392 0
w 414 -413 -392 1
w 415 414 393 0
w 415 414 -393 0
w 415 -414 393 1
w 415 -414 -393 0
w 416 415 394 1
w 416 415 -394 0
w 416 -415 394 1
w 416 -415 -394 1
w 417 416 395 0.765827
w 417 416 -395 0.923755
w 417 -416 395 0.858001
w 417 -416 -395 0.0371271
w 418 417 396 0
w 418 417 -396 1
w 418 -417 396 1
w 418 -417 -396 0
w 419 397 0
w 419 -397 1
w 420 419 398 0
w 420 419 -398 1
w 420 -419 398 0
w 420 -419 -398 0
w 421 420 399 1
w 421 420 -399 0
w 421 -420 399 0
w 421 -420 -399 0
w 422 421 400 0
w 422 421 -400 0
w 422 -421 400 0
w 422 -421 -400 1
w 423 422 401 0
w 423 422 -401 0
w 423 -422 401 0
w 423 -422 -401 1
w 424 423 402 0.846627
w 424 423 -402 0.302159
w 424 -423 402 0.628648
w 424 -423 -402 0.0188458
w 425 424 403 1
w 425 424 -403 1
w 425 -424 403 1
w 425 -424 -403 0
w 426 425 404 0
w 426 425 -404 0
w 426 -425 404 1
w 426 -425 -404 1
w 427 426 405 0.459062
w 427 426 -405 0.335315
w 427 -426 405 0.859311
w 427 -426 -405 0.629961
w 428 427 406 1
w 428 427 -406 0
w 428 -427 406 0
w 428 -427 -406 0
w 429 428 407 0
w 429 428 -407 1
w 429 -428 407 1
w 429 -428 -407 0
w 430 429 408 0
w 430 429 -408 1
w 430 -429 408 0
w 430 -429 -408 1
w 431 430 409 1
w 431 430 -409 0
w 431 -430 409 1
w 431 -430 -409 0
w 432 431 410 1
w 432 431 -410 1
w 432 -431 410 0
w 432 -431 -410 0
w 433 432 411 0.150184
w 433 432 -411 0.49985
w 433 -432 411 0.256102
w 433 -432 -411 0.00949455
w 434 433 412 1
w 434 433 -412 1
w 434 -433 412 0
w 434 -433 -412 1
w 435 434 413 1
w 435 434 -413 1
w 435 -434 413 0
w 435 -434 -413 0
w 436 435 414 1
w 436 435 -414 0
w 436 -435 414 1
w 436 -435 -414 1
w 437 436 415 1
w 437 436 -415 0
w 437 -436 415 0
w 437 -436 -415 1
w 438 437 416 0
w 438 437 -416 0
w 438 -437 416 1
w 438 -437 -416 1
w 439 438 417 0.406814
w 439 438 -417 0.771933
w 439 -438 417 0.26487
w 439 -438 -417 0.662916
w 440 439 418 0.39468
w 440 439 -418 0.608747
w 440 -439 418 0.559264
w 440 -439 -418 0.846492
w 441 419 0
w 441 -419 1
w 442 441 420 0.021494
w 442 441 -420 0.0810758
w 442 -441 420 0.542315
w 442 -441 -420 0.341583
w 443 442 421 1
w 443 442 -421 1
w 443 -442 421 0
w 443 -442 -421 1
w 444 443 422 1
w 444 443 -422 1
w 444 -443 422 1
w 444 -443 -422 0
w 445 444 423 0
w 445 444 -423 0
w 445 -444 423 1
w 445 -444 -423 0
w 446 445 424 0.759846
w 446 445 -424 0.978622
w 446 -445 424 0.190242
w 446 -445 -424 0.368593
w 447 446 425 0
w 447 446 -425 1
w 447 -446 425 0
w 447 -446 -425 0
w 448 447 426 1
w 448 447 -426 1
w 448 -447 426 0
w 448 -447 -426 1
w 449 448 427 1
w 449 448 -427 0
w 449 -448 427 0
w 449 -448 -427 1
w 450 449 428 0.701566
w 450 449 -428 0.251519
w 450 -449 428 0.103403
w 450 -449 -428 0.505079
w 451 450 429 1
w 451 450 -429 1
w 451 -450 429 0
w 451 -450 -429 0
w 452 451 430 1
w 452 451 -430 1
w 452 -451 430 0
w 452 -451 -430 0
w 453 452 431 1
w 453 452 -431 0
w 453 -452 431 1
w 453 -452 -431 1
w 454 453 432 1
w 454 453 -432 0
w 454 -453 432 0
w 454 -453 -432 1
w 455 454 433 1
w 455 454 -433 0
w 455 -454 433 1
w 455 -454 -433 1
w 456 455 434 0
w 456 455 -434 0
w 456 -455 434 1
w 456 -455 -434 1
w 457 456 435 1
w 457 456 -435 0
w 457 -456 435 1
w 457 -456 -435 0
w 458 457 436 0.696712
w 458 457 -436 0.653161
w 458 -457 436 0.557068
w 458 -457 -436 0.80287
w 459 458 437 0
w 459 458 -437 0
w 459 -458 437 1
w 459 -458 -437 0
w 460 459 438 1
w 460 459 -438 1
w 460 -459 438 0
w 460 -459 -438 1
w 461 460 439 0
w 461 460 -439 0
w 461 -460 439 1
w 461 -460 -439 1
w 462 461 440 0.308707
w 462 461 -440 0.892772
w 462 -461 440 0.900366
w 462 -461 -440 0.0533508
w 463 441 0
w 463 -441 1
w 464 463 442 0.131899
w 464 463 -442 0.108376
w 464 -463 442 0.124902
w 464 -463 -442 0.0386715
w 465 464 443 0.778063
w 465 464 -443 0.59574
w 465 -464 443 0.607957
w 465 -464 -443 0.96491
w 466 465 444 0
w 466 465 -444 1
w 466 -465 444 1
w 466 -465 -444 0
w 467 466 445 0.0643374
w 467 466 -445 0.696835
w 467 -466 445 0.158272
w 467 -466 -445 0.596875
w 468 467 446 0
w 468 467 -446 1
w 468 -467 446 0
w 468 -467 -446 0
w 469 468 447 0
w 469 468 -447 1
w 469 -468 447 1
w 469 -468 -447 1
w 470 469 448 1
w 470 469 -448 0
w 470 -469 448 1
w 470 -469 -448 1
w 471 470 449 1
w 471 470 -449 0
w 471 -470 449 0
w 471 -470 -449 1
w 472 471 450 1
w 472 471 -450 0
w 472 -471 450 1
w 472 -471 -450 1
w 473 472 451 0
w 473 472 -451 1
w 473 -472 451 0
w 473 -472 -451 0
w 474 473 452 0.797582
w 474 473 -452 0.225698
w 474 -473 452 0.825172
w 474 -473 -452 0.0568881
w 475 474 453 0.741433
w 475 474 -453 0.216561
w 475 -474 453 0.721378
w 475 -474 -453 0.773271
w 476 475 454 0.311078
w 476 475 -454 0.937006
w 476 -475 454 0.722682
w 476 -475 -454 0.0256807
w 477 476 455 0
w 477 476 -455 1
w 477 -476 455 0
w 477 -476 -455 1
w 478 477 456 0.907406
w 478 477 -456 0.830476
w 478 -477 456 0.155676
w 478 -477 -456 0.0594349
w 479 478 457 1
w 479 478 -457 1
w 479 -478 457 0
w 479 -478 -457 1
w 480 479 458 0
w 480 479 -458 0
w 480 -479 458 1
w 480 -479 -458 0
w 481 480 459 0
w 481 480 -459 0
w 481 -480 459 1
w 481 -480 -459 1
w 482 481 460 0
w 482 481 -460 1
w 482 -481 460 0
w 482 -481 -460 1
w 483 482 461 0
w 483 482 -461 1
w 483 -482 461 0
w 483 -482 -461 1
w 484 483 462 0.299713
w 484 483 -462 0.0371272
w 484 -483 462 0.969684
w 484 -483 -462 0.359148